NAME: tsp10_batch1_gaussian.tsp
TYPE: TSP
DIMENSION: 10
EDGE_WEIGHT_TYPE: EUC_2D
NODE_COORD_SECTION
1 9.056120668354751 55.09154354502755
2 32.421678163481864 0.0
3 100.0 54.852876579167514
4 47.48818430328562 64.65032015201957
5 50.34209285876596 48.05910295139679
6 30.87261755424042 55.423823217779535
7 41.636743573176176 82.06530890128649
8 39.72817159118673 12.86049291121579
9 67.27571999184528 67.80012374705812
10 53.24668157035502 43.30344131278232
EOF
